utils/lkh_output8.tour
NAME : tsp_file.tsp.475.tour
COMMENT : Length = 475
COMMENT : Found by LKH-3 [Keld Helsgaun] Wed Jun 14 10:44:29 2023
TYPE : TOUR
DIMENSION : 30
TOUR_SECTION
1
18
8
3
21
29
7
13
30
10
15
17
5
14
9
12
20
16
26
2
24
23
4
22
28
27
25
6
11
19
-1
EOF
